
        $ From http://www.csplib.org/Problems/prob009/data/helmut.pdf
        $ Problem number 55
        $ Sequence length : 25
        language ESSENCE' 1.0
        letting sizemaster be 244
        letting sizes be sequence(1,2,4,5,7,10,15,17,19,20,21,22,26,27,30,37,40,41,45,65,66,68,70,110,134)
        